NAME examples

ROWS
      N obj
      G c1
      G c2
      G c3
      G c4
      G c5
      G c6
      G c7
      G c8
      G c9
      G c10
      G c11
      G c12
      G c13
      G c14
      G c15
      G c16
      G c17
      G c18
      G c19
      G c20
      G c21
      G c22
      G c23
      G c24
      G c25
      G c26
      G c27
      G c28

COLUMNS
      x1  obj   0.33
      x1 c6 1
      x2  obj   0.24
      x2 c17 1
      x2 c19 1
      x2 c27 1
      x3  obj   1.11
      x3 c2 1
      x3 c4 1
      x3 c7 1
      x3 c10 1
      x3 c15 1
      x3 c18 1
      x3 c22 1
      x4  obj   1.11
      x4 c2 1
      x4 c4 1
      x4 c7 1
      x4 c10 1
      x4 c15 1
      x4 c18 1
      x4 c22 1
      x5  obj   0.08
      x5 c17 1
      x6  obj   1.89
      x6 c1 1
      x6 c3 1
      x6 c8 1
      x6 c11 1
      x6 c12 1
      x6 c14 1
      x6 c16 1
      x6 c17 1
      x6 c19 1
      x6 c20 1
      x6 c21 1
      x6 c23 1
      x6 c24 1
      x6 c25 1
      x6 c26 1
      x6 c27 1
      x6 c28 1
      x7  obj   0.41
      x7 c17 1
      x7 c19 1
      x7 c23 1
      x7 c26 1
      x7 c27 1
      x8  obj   0.08
      x8 c14 1
      x9  obj   1.89
      x9 c1 1
      x9 c3 1
      x9 c8 1
      x9 c11 1
      x9 c12 1
      x9 c14 1
      x9 c16 1
      x9 c17 1
      x9 c19 1
      x9 c20 1
      x9 c21 1
      x9 c23 1
      x9 c24 1
      x9 c25 1
      x9 c26 1
      x9 c27 1
      x9 c28 1
      x10  obj   0.33
      x10 c5 1
      x11  obj   0.14
      x11 c22 1
      x12  obj   0.27
      x12 c12 1
      x12 c25 1
      x13  obj   0.69
      x13 c14 1
      x13 c17 1
      x13 c19 1
      x13 c20 1
      x13 c21 1
      x13 c23 1
      x13 c26 1
      x13 c27 1
      x14  obj   0.08
      x14 c19 1
      x15  obj   0.81
      x15 c14 1
      x15 c17 1
      x15 c19 1
      x15 c20 1
      x15 c21 1
      x15 c23 1
      x15 c24 1
      x15 c26 1
      x15 c27 1
      x16  obj   0.33
      x16 c9 1
      x17  obj   0.14
      x17 c15 1
      x18  obj   0.17
      x18 c14 1
      x18 c20 1
      x19  obj   1.08
      x19 c1 1
      x19 c8 1
      x19 c14 1
      x19 c17 1
      x19 c19 1
      x19 c20 1
      x19 c21 1
      x19 c23 1
      x19 c24 1
      x19 c26 1
      x19 c27 1
      x20  obj   1.11
      x20 c2 1
      x20 c4 1
      x20 c7 1
      x20 c10 1
      x20 c15 1
      x20 c18 1
      x20 c22 1
      x21  obj   0.81
      x21 c1 1
      x21 c14 1
      x21 c17 1
      x21 c19 1
      x21 c20 1
      x21 c21 1
      x21 c23 1
      x21 c26 1
      x21 c27 1
      x22  obj   1.89
      x22 c1 1
      x22 c3 1
      x22 c8 1
      x22 c11 1
      x22 c12 1
      x22 c14 1
      x22 c16 1
      x22 c17 1
      x22 c19 1
      x22 c20 1
      x22 c21 1
      x22 c23 1
      x22 c24 1
      x22 c25 1
      x22 c26 1
      x22 c27 1
      x22 c28 1
      x23  obj   0.86
      x23 c2 1
      x23 c4 1
      x23 c7 1
      x23 c10 1
      x23 c15 1
      x23 c22 1
      x24  obj   1.89
      x24 c1 1
      x24 c3 1
      x24 c8 1
      x24 c11 1
      x24 c12 1
      x24 c14 1
      x24 c16 1
      x24 c17 1
      x24 c19 1
      x24 c20 1
      x24 c21 1
      x24 c23 1
      x24 c24 1
      x24 c25 1
      x24 c26 1
      x24 c27 1
      x24 c28 1
      x25  obj   0.11
      x25 c28 1
      x26  obj   1.89
      x26 c1 1
      x26 c3 1
      x26 c8 1
      x26 c11 1
      x26 c12 1
      x26 c14 1
      x26 c16 1
      x26 c17 1
      x26 c19 1
      x26 c20 1
      x26 c21 1
      x26 c23 1
      x26 c24 1
      x26 c25 1
      x26 c26 1
      x26 c27 1
      x26 c28 1
      x27  obj   1.5
      x27 c5 1
      x27 c6 1
      x27 c9 1
      x27 c13 1
      x28  obj   0.08
      x28 c26 1
      x29  obj   0.14
      x29 c7 1
      x30  obj   0.27
      x30 c2 1
      x30 c4 1
      x31  obj   1.5
      x31 c5 1
      x31 c6 1
      x31 c9 1
      x31 c13 1
      x32  obj   0.38
      x32 c3 1
      x32 c11 1
      x32 c28 1
      x33  obj   0.13
      x33 c25 1
      x34  obj   0.13
      x34 c2 1
      x35  obj   1.11
      x35 c2 1
      x35 c4 1
      x35 c7 1
      x35 c10 1
      x35 c15 1
      x35 c18 1
      x35 c22 1
      x36  obj   0.86
      x36 c2 1
      x36 c4 1
      x36 c7 1
      x36 c10 1
      x36 c15 1
      x36 c22 1
      x37  obj   1.89
      x37 c1 1
      x37 c3 1
      x37 c8 1
      x37 c11 1
      x37 c12 1
      x37 c14 1
      x37 c16 1
      x37 c17 1
      x37 c19 1
      x37 c20 1
      x37 c21 1
      x37 c23 1
      x37 c24 1
      x37 c25 1
      x37 c26 1
      x37 c27 1
      x37 c28 1
      x38  obj   0.24
      x38 c11 1
      x38 c28 1

RHS
      rhs c1  1
      rhs c2  1
      rhs c3  1
      rhs c4  1
      rhs c5  1
      rhs c6  1
      rhs c7  1
      rhs c8  1
      rhs c9  1
      rhs c10  1
      rhs c11  1
      rhs c12  1
      rhs c13  1
      rhs c14  1
      rhs c15  1
      rhs c16  1
      rhs c17  1
      rhs c18  1
      rhs c19  1
      rhs c20  1
      rhs c21  1
      rhs c22  1
      rhs c23  1
      rhs c24  1
      rhs c25  1
      rhs c26  1
      rhs c27  1
      rhs c28  1

BOUNDS
      LI bnd x1 0
      LI bnd x2 0
      LI bnd x3 0
      LI bnd x4 0
      LI bnd x5 0
      LI bnd x6 0
      LI bnd x7 0
      LI bnd x8 0
      LI bnd x9 0
      LI bnd x10 0
      LI bnd x11 0
      LI bnd x12 0
      LI bnd x13 0
      LI bnd x14 0
      LI bnd x15 0
      LI bnd x16 0
      LI bnd x17 0
      LI bnd x18 0
      LI bnd x19 0
      LI bnd x20 0
      LI bnd x21 0
      LI bnd x22 0
      LI bnd x23 0
      LI bnd x24 0
      LI bnd x25 0
      LI bnd x26 0
      LI bnd x27 0
      LI bnd x28 0
      LI bnd x29 0
      LI bnd x30 0
      LI bnd x31 0
      LI bnd x32 0
      LI bnd x33 0
      LI bnd x34 0
      LI bnd x35 0
      LI bnd x36 0
      LI bnd x37 0
      LI bnd x38 0
      UI bnd x1 1
      UI bnd x2 1
      UI bnd x3 1
      UI bnd x4 1
      UI bnd x5 1
      UI bnd x6 1
      UI bnd x7 1
      UI bnd x8 1
      UI bnd x9 1
      UI bnd x10 1
      UI bnd x11 1
      UI bnd x12 1
      UI bnd x13 1
      UI bnd x14 1
      UI bnd x15 1
      UI bnd x16 1
      UI bnd x17 1
      UI bnd x18 1
      UI bnd x19 1
      UI bnd x20 1
      UI bnd x21 1
      UI bnd x22 1
      UI bnd x23 1
      UI bnd x24 1
      UI bnd x25 1
      UI bnd x26 1
      UI bnd x27 1
      UI bnd x28 1
      UI bnd x29 1
      UI bnd x30 1
      UI bnd x31 1
      UI bnd x32 1
      UI bnd x33 1
      UI bnd x34 1
      UI bnd x35 1
      UI bnd x36 1
      UI bnd x37 1
      UI bnd x38 1

ENDATA